NAME : portcgen-25-20
COMMENT : portcgen N=25, seed=20
TYPE : TSP
DIMENSION : 25
EDGE_WEIGHT_TYPE : EUC_2D
NODE_COORD_SECTION
1 75 71
2 84 54
3 57 76
4 55 38
5 93 81
6 63 71
7 51 77
8 61 69
9 60 47
10 50 80
11 77 57
12 93 63
13 96 74
14 73 59
15 53 66
16 94 62
17 65 61
18 65 32
19 80 63
20 70 42
21 92 66
22 95 40
23 49 54
24 63 46
25 83 85
